56
raw_data/mm-rcpsp/MMLIB50/J5012_1.mm
Time limit set to 60 seconds
Running CP solver
/home/omastto1/General-Optimization-Solver/src/solvers/mmrcpsp.py:42(stream:276:6): Warning: Cumulative expression 'pulse': height is zero, expression is zero everywhere.
                                                                                               VarCumulAtom_419 = pulse(task_0_mode_0, 0)
/home/omastto1/General-Optimization-Solver/src/solvers/mmrcpsp.py:42(stream:276:3907): Warning: Cumulative expression 'pulse': height is zero, expression is zero everywhere.
                                                                                                  VarCumulAtom_570 = pulse(task_51_mode_0, 0)
/home/omastto1/General-Optimization-Solver/src/solvers/mmrcpsp.py:42(stream:277:6): Warning: Cumulative expression 'pulse': height is zero, expression is zero everywhere.
                                                                                               VarCumulAtom_574 = pulse(task_0_mode_0, 0)
/home/omastto1/General-Optimization-Solver/src/solvers/mmrcpsp.py:42(stream:277:3906): Warning: Cumulative expression 'pulse': height is zero, expression is zero everywhere.
                                                                                                  VarCumulAtom_725 = pulse(task_51_mode_0, 0)
 ! --------------------------------------------------- CP Optimizer 20.1.0.0 --
 ! Minimization problem - 205 variables, 269 constraints
 ! TimeLimit            = 60
 ! Workers              = 14
 ! LogVerbosity         = Terse
 ! Initial process time : 0.00s (0.00s extraction + 0.00s propagation)
 !  . Log search space  : 520.8 (before), 520.8 (after)
 !  . Memory usage      : 1.3 MB (before), 1.3 MB (after)
 ! Using parallel search with 14 workers.
 ! ----------------------------------------------------------------------------
 !          Best Branches  Non-fixed    W       Branch decision
                        0        205                 -
 + New bound is 17
 ! Using iterative diving.
 ! Using temporal relaxation.
 *            52      115  0.80s        1      (gap is 67.31%)
 *            48      321  0.80s        1      (gap is 64.58%)
 *            44      515  0.80s        1      (gap is 61.36%)
 *            36      923  0.80s        1      (gap is 52.78%)
 *            35     1277  0.80s        1      (gap is 51.43%)
 *            33      916  0.80s        5      (gap is 48.48%)
 *            31     7905  2.96s        5      (gap is 45.16%)
 *            30     7987  2.96s        5      (gap is 43.33%)
 *            29     8303  2.96s        5      (gap is 41.38%)
 ! Using failure-directed search.
 *            28    34686  10.05s      10      (gap is 39.29%)
 ! ----------------------------------------------------------------------------
 ! Search terminated by limit, 10 solutions found.
 ! Best objective         : 28 (gap is 39.29%)
 ! Best bound             : 17
 ! ----------------------------------------------------------------------------
 ! Number of branches     : 5268398
 ! Number of fails        : 1000385
 ! Total memory usage     : 19.9 MB (19.8 MB CP Optimizer + 0.2 MB Concert)
 ! Time spent in solve    : 60.01s (60.01s engine + 0.00s extraction)
 ! Search speed (br. / s) : 87792.0
 ! ----------------------------------------------------------------------------
task_0: (start=0, end=0, size=0, length=0)
Task 0 is scheduled in mode 0 from 0 to 0
task_1: (start=3, end=8, size=5, length=5)
Task 1 is scheduled in mode 0 from 3 to 8
task_2: (start=0, end=2, size=2, length=2)
Task 2 is scheduled in mode 0 from 0 to 2
task_3: (start=0, end=2, size=2, length=2)
Task 3 is scheduled in mode 0 from 0 to 2
task_4: (start=0, end=2, size=2, length=2)
Task 4 is scheduled in mode 0 from 0 to 2
task_5: (start=0, end=3, size=3, length=3)
Task 5 is scheduled in mode 0 from 0 to 3
task_6: (start=6, end=14, size=8, length=8)
Task 6 is scheduled in mode 1 from 6 to 14
task_7: (start=8, end=9, size=1, length=1)
Task 7 is scheduled in mode 0 from 8 to 9
task_8: (start=0, end=1, size=1, length=1)
Task 8 is scheduled in mode 0 from 0 to 1
task_9: (start=5, end=12, size=7, length=7)
Task 9 is scheduled in mode 2 from 5 to 12
task_10: (start=13, end=14, size=1, length=1)
Task 10 is scheduled in mode 0 from 13 to 14
task_11: (start=1, end=9, size=8, length=8)
Task 11 is scheduled in mode 2 from 1 to 9
task_12: (start=2, end=5, size=3, length=3)
Task 12 is scheduled in mode 1 from 2 to 5
task_13: (start=8, end=14, size=6, length=6)
Task 13 is scheduled in mode 2 from 8 to 14
task_14: (start=6, end=13, size=7, length=7)
Task 14 is scheduled in mode 2 from 6 to 13
task_15: (start=3, end=8, size=5, length=5)
Task 15 is scheduled in mode 0 from 3 to 8
task_16: (start=9, end=11, size=2, length=2)
Task 16 is scheduled in mode 0 from 9 to 11
task_17: (start=2, end=6, size=4, length=4)
Task 17 is scheduled in mode 0 from 2 to 6
task_18: (start=16, end=18, size=2, length=2)
Task 18 is scheduled in mode 0 from 16 to 18
task_19: (start=15, end=16, size=1, length=1)
Task 19 is scheduled in mode 0 from 15 to 16
task_20: (start=12, end=15, size=3, length=3)
Task 20 is scheduled in mode 0 from 12 to 15
task_21: (start=0, end=3, size=3, length=3)
Task 21 is scheduled in mode 0 from 0 to 3
task_22: (start=10, end=12, size=2, length=2)
Task 22 is scheduled in mode 0 from 10 to 12
task_23: (start=9, end=10, size=1, length=1)
Task 23 is scheduled in mode 0 from 9 to 10
task_24: (start=12, end=13, size=1, length=1)
Task 24 is scheduled in mode 0 from 12 to 13
task_25: (start=16, end=18, size=2, length=2)
Task 25 is scheduled in mode 0 from 16 to 18
task_26: (start=18, end=20, size=2, length=2)
Task 26 is scheduled in mode 0 from 18 to 20
task_27: (start=14, end=21, size=7, length=7)
Task 27 is scheduled in mode 1 from 14 to 21
task_28: (start=16, end=22, size=6, length=6)
Task 28 is scheduled in mode 2 from 16 to 22
task_29: (start=14, end=18, size=4, length=4)
Task 29 is scheduled in mode 1 from 14 to 18
task_30: (start=14, end=16, size=2, length=2)
Task 30 is scheduled in mode 0 from 14 to 16
task_31: (start=6, end=15, size=9, length=9)
Task 31 is scheduled in mode 2 from 6 to 15
task_32: (start=10, end=20, size=10, length=10)
Task 32 is scheduled in mode 2 from 10 to 20
task_33: (start=20, end=26, size=6, length=6)
Task 33 is scheduled in mode 1 from 20 to 26
task_34: (start=18, end=23, size=5, length=5)
Task 34 is scheduled in mode 0 from 18 to 23
task_35: (start=23, end=24, size=1, length=1)
Task 35 is scheduled in mode 0 from 23 to 24
task_36: (start=23, end=25, size=2, length=2)
Task 36 is scheduled in mode 0 from 23 to 25
task_37: (start=21, end=23, size=2, length=2)
Task 37 is scheduled in mode 0 from 21 to 23
task_38: (start=24, end=27, size=3, length=3)
Task 38 is scheduled in mode 0 from 24 to 27
task_39: (start=27, end=28, size=1, length=1)
Task 39 is scheduled in mode 0 from 27 to 28
task_40: (start=27, end=28, size=1, length=1)
Task 40 is scheduled in mode 0 from 27 to 28
task_41: (start=27, end=28, size=1, length=1)
Task 41 is scheduled in mode 0 from 27 to 28
task_42: (start=26, end=28, size=2, length=2)
Task 42 is scheduled in mode 0 from 26 to 28
task_43: (start=24, end=27, size=3, length=3)
Task 43 is scheduled in mode 0 from 24 to 27
task_44: (start=26, end=28, size=2, length=2)
Task 44 is scheduled in mode 0 from 26 to 28
task_45: (start=22, end=26, size=4, length=4)
Task 45 is scheduled in mode 1 from 22 to 26
task_46: (start=20, end=27, size=7, length=7)
Task 46 is scheduled in mode 2 from 20 to 27
task_47: (start=25, end=26, size=1, length=1)
Task 47 is scheduled in mode 0 from 25 to 26
task_48: (start=18, end=20, size=2, length=2)
Task 48 is scheduled in mode 0 from 18 to 20
task_49: (start=8, end=18, size=10, length=10)
Task 49 is scheduled in mode 2 from 8 to 18
task_50: (start=2, end=6, size=4, length=4)
Task 50 is scheduled in mode 0 from 2 to 6
task_51: (start=28, end=28, size=0, length=0)
Task 51 is scheduled in mode 0 from 28 to 28
Feasible solution found
Objective value: 28
Solution is 64.7 % worse than the lower bound.
